outputs/case_0.model.txt
own_capital = 11109/100
responsible_person_suspended = True
risk_capital = 100
net_worth_ratio_prev2 = 297/100
responsible_person_removed = True
credit_restriction = True
net_worth = 297/100
improvement_plan_executed = True
branch_reduction = True
net_worth_ratio_prev1 = 297/100
improvement_plan_submitted = True
responsible_person_compensation_reduced = True
asset_disposed = True
asset_disposal_approved = True
special_disposition_149_3_1 = False
level_4_measures_executed = False
capital_level = 3
level_2_measures_executed = True
penalty = False
level_3_measures_executed = True
/0 = [else -> 11109/10000]